nNurses = 197;
nHours = 28;
minHours = 10;
maxHours = 18;
maxConsec = 11;
maxPresence = 25;
demand = [38, 41, 45, 45, 43, 42, 38, 41, 43, 46, 50, 46, 47, 49, 47, 42, 43, 45, 50, 50, 49, 46, 49, 49, 44, 42, 42, 43];
